(set-logic QF_S)
(declare-fun var0 () String)
(declare-fun var1 () String)
(declare-fun var2 () String)
(declare-fun var3 () String)
(declare-fun var4 () Int)
(declare-fun var5 () Int)
(declare-fun var6 () Int)
(declare-fun var7 () Int)
(assert (str.contains (str.replace (str.replace var0 var1 var2) (str.substr var3 var4 var5) (str.substr var2 79 var6)) (str.substr var2 var7 var7)))
(assert (<= (str.indexof var0 var1 var4) (str.to.int var1)))
(assert (str.contains var0 var2))
(assert (str.prefixof var3 var3))
(check-sat)